14° run output:
{
    "Function": "ClusterB300.tsp",
    "Problem dimension": [
        101,
        7,
        242,
        138,
        236,
        44,
        265,
        74,
        249,
        204,
        144,
        183,
        247,
        245,
        141,
        235,
        112,
        243,
        271,
        154,
        240,
        15,
        145,
        11,
        21,
        47,
        169,
        151,
        254,
        160,
        58,
        120,
        273,
        220,
        285,
        212,
        93,
        111,
        252,
        89,
        48,
        215,
        297,
        130,
        121,
        73,
        28,
        281,
        233,
        166,
        173,
        49,
        109,
        29,
        24,
        56,
        287,
        268,
        26,
        59,
        150,
        222,
        229,
        239,
        102,
        217,
        75,
        1,
        190,
        40,
        279,
        103,
        226,
        181,
        274,
        134,
        153,
        124,
        39,
        165,
        202,
        149,
        83,
        191,
        251,
        289,
        284,
        4,
        174,
        225,
        137,
        147,
        30,
        88,
        122,
        163,
        95,
        65,
        117,
        140,
        32,
        195,
        142,
        52,
        85,
        275,
        175,
        264,
        131,
        125,
        205,
        129,
        248,
        63,
        207,
        197,
        108,
        96,
        105,
        17,
        72,
        92,
        155,
        157,
        293,
        294,
        257,
        146,
        298,
        62,
        118,
        67,
        76,
        178,
        6,
        51,
        208,
        0,
        244,
        296,
        203,
        156,
        64,
        219,
        57,
        50,
        231,
        263,
        291,
        162,
        128,
        193,
        223,
        238,
        286,
        177,
        116,
        36,
        97,
        182,
        70,
        185,
        255,
        55,
        37,
        158,
        68,
        80,
        77,
        196,
        270,
        232,
        34,
        33,
        277,
        86,
        127,
        241,
        261,
        2,
        98,
        258,
        214,
        211,
        132,
        180,
        22,
        224,
        10,
        262,
        152,
        78,
        12,
        31,
        272,
        69,
        107,
        167,
        91,
        184,
        228,
        192,
        14,
        81,
        114,
        278,
        20,
        46,
        161,
        246,
        25,
        187,
        206,
        159,
        216,
        259,
        189,
        135,
        71,
        5,
        13,
        45,
        38,
        256,
        115,
        194,
        90,
        168,
        104,
        43,
        113,
        35,
        61,
        133,
        210,
        237,
        139,
        186,
        280,
        18,
        16,
        60,
        19,
        172,
        290,
        143,
        266,
        227,
        230,
        106,
        188,
        292,
        100,
        87,
        282,
        295,
        84,
        110,
        218,
        119,
        234,
        66,
        123,
        201,
        288,
        221,
        250,
        209,
        94,
        53,
        3,
        148,
        260,
        176,
        198,
        126,
        253,
        276,
        54,
        23,
        82,
        199,
        41,
        9,
        283,
        200,
        42,
        213,
        136,
        27,
        179,
        79,
        8,
        170,
        164,
        269,
        299,
        99,
        267,
        171
    ],
    "Global Optimum": 0,
    "Algorithm": "Genetic algorithm",
    "Parameters": {
        "population": 30,
        "offspring": 30,
        "mutation probability": 0.0033333333333333335,
        "crossover probability": 0.9
    },
    "Fitness": 363835,
    "Solution": [
        101,
        7,
        242,
        138,
        236,
        44,
        265,
        74,
        249,
        204,
        144,
        183,
        247,
        245,
        141,
        235,
        112,
        243,
        271,
        154,
        240,
        15,
        145,
        11,
        21,
        47,
        169,
        151,
        254,
        160,
        58,
        120,
        273,
        220,
        285,
        212,
        93,
        111,
        252,
        89,
        48,
        215,
        297,
        130,
        121,
        73,
        28,
        281,
        233,
        166,
        173,
        49,
        109,
        29,
        24,
        56,
        287,
        268,
        26,
        59,
        150,
        222,
        229,
        239,
        102,
        217,
        75,
        1,
        190,
        40,
        279,
        103,
        226,
        181,
        274,
        134,
        153,
        124,
        39,
        165,
        202,
        149,
        83,
        191,
        251,
        289,
        284,
        4,
        174,
        225,
        137,
        147,
        30,
        88,
        122,
        163,
        95,
        65,
        117,
        140,
        32,
        195,
        142,
        52,
        85,
        275,
        175,
        264,
        131,
        125,
        205,
        129,
        248,
        63,
        207,
        197,
        108,
        96,
        105,
        17,
        72,
        92,
        155,
        157,
        293,
        294,
        257,
        146,
        298,
        62,
        118,
        67,
        76,
        178,
        6,
        51,
        208,
        0,
        244,
        296,
        203,
        156,
        64,
        219,
        57,
        50,
        231,
        263,
        291,
        162,
        128,
        193,
        223,
        238,
        286,
        177,
        116,
        36,
        97,
        182,
        70,
        185,
        255,
        55,
        37,
        158,
        68,
        80,
        77,
        196,
        270,
        232,
        34,
        33,
        277,
        86,
        127,
        241,
        261,
        2,
        98,
        258,
        214,
        211,
        132,
        180,
        22,
        224,
        10,
        262,
        152,
        78,
        12,
        31,
        272,
        69,
        107,
        167,
        91,
        184,
        228,
        192,
        14,
        81,
        114,
        278,
        20,
        46,
        161,
        246,
        25,
        187,
        206,
        159,
        216,
        259,
        189,
        135,
        71,
        5,
        13,
        45,
        38,
        256,
        115,
        194,
        90,
        168,
        104,
        43,
        113,
        35,
        61,
        133,
        210,
        237,
        139,
        186,
        280,
        18,
        16,
        60,
        19,
        172,
        290,
        143,
        266,
        227,
        230,
        106,
        188,
        292,
        100,
        87,
        282,
        295,
        84,
        110,
        218,
        119,
        234,
        66,
        123,
        201,
        288,
        221,
        250,
        209,
        94,
        53,
        3,
        148,
        260,
        176,
        198,
        126,
        253,
        276,
        54,
        23,
        82,
        199,
        41,
        9,
        283,
        200,
        42,
        213,
        136,
        27,
        179,
        79,
        8,
        170,
        164,
        269,
        299,
        99,
        267,
        171
    ],
    "Nb of functions evaluations": 50010,
    "Computational time in seconds": 144.31139469146729,
    "Stopping criterion in evaluations": 50000
}